p cnf 61 226
3 1 0
3 2 0
-1 -2 -3 0
-4 3 0
-4 3 0
-3 4 0
5 -3 0
5 4 0
3 -4 -5 0
9 -7 0
9 -8 0
7 8 -9 0
6 9 -10 0
-6 -9 -10 0
6 -9 10 0
-6 9 10 0
11 7 0
11 -7 0
-13 -11 0
-13 -12 0
11 12 13 0
-10 -13 -14 0
10 13 -14 0
-10 13 14 0
10 -13 14 0
3 14 -15 0
-3 -14 -15 0
3 -14 15 0
-3 14 15 0
15 16 -17 0
-15 -16 -17 0
15 -16 17 0
-15 16 17 0
18 12 0
18 9 0
-12 -9 -18 0
18 -1 -19 0
-18 1 -19 0
18 1 19 0
-18 -1 19 0
-21 20 0
-21 12 0
-20 -12 21 0
-8 21 -22 0
8 -21 -22 0
-8 -21 22 0
8 21 22 0
-24 -23 0
-24 -8 0
23 8 24 0
-21 12 -25 0
21 -12 -25 0
-21 -12 25 0
21 12 25 0
-24 25 -26 0
24 -25 -26 0
-24 -25 26 0
24 25 26 0
22 -26 -27 0
-22 26 -27 0
22 26 27 0
-22 -26 27 0
-19 27 -28 0
19 -27 -28 0
-19 -27 28 0
19 27 28 0
29 17 0
29 -28 0
-17 28 -29 0
31 -6 0
31 30 0
6 -30 -31 0
6 -31 -32 0
-6 31 -32 0
6 31 32 0
-6 -31 32 0
-33 -29 0
-33 -32 0
29 32 33 0
34 2 0
34 -7 0
-2 7 -34 0
1 35 0
-1 35 0
36 -20 0
36 -35 0
20 35 -36 0
-36 2 -37 0
36 -2 -37 0
-36 -2 37 0
36 2 37 0
-38 34 0
-38 37 0
-34 -37 38 0
-39 33 0
-39 -38 0
-33 38 39 0
-31 9 -40 0
31 -9 -40 0
-31 -9 40 0
31 9 40 0
24 -40 -41 0
-24 40 -41 0
24 40 41 0
-24 -40 41 0
-21 8 -42 0
21 -8 -42 0
-21 -8 42 0
21 8 42 0
-43 -42 0
-43 -20 0
42 20 43 0
-44 -41 0
-44 43 0
41 -43 44 0
-23 9 -45 0
23 -9 -45 0
-23 -9 45 0
23 9 45 0
-44 45 -46 0
44 -45 -46 0
-44 -45 46 0
44 45 46 0
3 7 -47 0
-3 -7 -47 0
3 -7 47 0
-3 7 47 0
48 -20 0
48 -47 0
20 47 -48 0
-49 -20 0
-49 -43 0
20 43 49 0
-50 31 0
-50 -11 0
-31 11 50 0
51 -49 0
51 -50 0
49 50 -51 0
-52 48 0
-52 51 0
-48 -51 52 0
-46 -52 -53 0
46 52 -53 0
-46 52 53 0
46 -52 53 0
54 39 0
54 53 0
-39 -53 -54 0
55 1 0
55 20 0
-1 -20 -55 0
-56 36 0
-56 42 0
-36 -42 56 0
40 -13 -57 0
-40 13 -57 0
40 13 57 0
-40 -13 57 0
58 -56 0
58 57 0
56 -57 -58 0
-55 58 -59 0
55 -58 -59 0
-55 -58 59 0
55 58 59 0
54 59 -60 0
-54 -59 -60 0
54 -59 60 0
-54 59 60 0
61 5 0
61 -60 0
-5 60 -61 0
54 -18 58 36 -49 0
-22 36 0
-28 -27 -14 58 -8 0
33 29 0
-28 16 0
-20 -52 57 1 56 0
24 -51 53 -45 2 16 0
-16 -27 -32 22 0
19 2 51 -13 -9 -44 0
-33 53 -54 5 -58 29 0
-32 21 2 54 -23 24 0
39 9 0
-57 55 34 0
44 48 56 0
59 -22 10 0
-56 25 46 8 0
-17 12 -56 25 0
-16 -53 0
-55 16 0
53 55 24 37 -25 0
-18 -21 -51 40 43 24 0
-16 -1 -39 -20 7 0
-4 -11 18 -9 39 0
-10 -13 54 -59 0
-37 4 61 45 20 0
48 -10 0
41 -31 27 -26 0
57 -6 41 -36 -19 0
-20 -14 -39 0
59 46 44 -53 0
-40 13 -52 -61 37 -8 0
-46 57 0
31 2 40 57 46 0
-56 -24 0
20 -36 0
-12 -28 0
-11 -48 -22 51 0
24 -5 -23 56 47 0
-50 33 43 -52 0
11 -14 -4 17 -58 0
-15 31 0
-53 -45 0
47 -20 -9 6 34 0
-12 50 -59 27 0
28 35 43 -10 0
-51 15 -13 0
7 57 -15 11 9 0
1 36 0
35 -32 -11 57 0
8 -15 0
-49 -25 5 2 -28 -11 0
-6 55 -25 44 21 0
61 0
